NAME : traveling-santa-2018-prime-paths
COMMENT : traveling-santa-2018-prime-paths
TYPE : TSP
DIMENSION : 5
EDGE_WEIGHT_TYPE : EUC_2D
NODE_COORD_SECTION
1 297.5754577 1952.548486
2 2052.1165 578.2935261
3 2645.077176 2717.838772
4 965.611152 1067.734281
5 454.9887227 1217.670993
EOF
